p td 40 60
0 13
0 31
0 6
0 16
1 2
1 23
1 29
1 30
2 20
2 31
2 38
3 15
3 28
4 39
4 37
4 23
5 37
5 22
5 32
6 23
6 32
6 34
6 9
6 27
7 32
7 13
7 10
7 31
7 29
8 29
8 25
8 12
9 11
9 12
11 30
11 28
11 36
12 26
13 37
15 25
15 31
16 35
16 29
17 21
18 23
19 29
19 32
19 26
20 32
22 37
23 37
23 24
23 30
24 38
24 32
25 35
26 31
27 35
27 28
28 39
